c read Graph
c width = 64
c time = 96 ms
c width = 9
c time = 142 ms
c width = 8
c time = 240 ms
c width = 7
c time = 1216 ms
c width = 7
c time = 4747 ms
s td 69 8 77
b 1 1 2 12
b 2 2 3 12 13
b 3 9 10 21 22
b 4 3 12 13 23
b 5 9 21 22 33
b 6 45 56 57 68
b 7 55 65 66 76
b 8 45 57 68 69
b 9 55 65 75 76
b 10 3 4 5 15
b 11 3 5 14 15 24 34
b 12 3 14 23 24 34
b 13 3 13 14 23 24
b 14 5 7 14 15 16 17 24 34
b 15 7 14 15 16 17 24 26 34
b 16 7 14 16 17 24 26 34 36
b 17 7 16 17 24 26 27 34 36
b 18 7 17 24 26 27 34 35 36
b 19 7 17 26 27 34 35 36 37
b 20 7 17 27 34 35 36 37 45
b 21 7 17 27 35 36 37 45 46
b 22 7 17 27 36 37 45 46 47
b 23 7 17 27 37 45 46 47 57
b 24 7 17 27 37 45 47 57 69
b 25 7 17 27 37 47 57 58 69
b 26 7 17 27 37 47 48 58 69
b 27 7 17 27 37 38 48 58 69
b 28 7 17 27 28 38 48 58 69
b 29 7 17 28 38 48 58 59 69
b 30 7 17 28 38 48 49 59 69
b 31 7 17 28 38 39 49 59 69
b 32 7 17 28 29 39 49 59 69
b 33 7 17 19 29 39 49 59 69
b 34 7 9 19 29 39 49 59 69
b 35 9 19 29 39 49 59 69 70
b 36 9 19 29 39 49 59 60 70
b 37 9 19 29 39 49 50 60 70
b 38 9 19 29 39 40 50 60 70
b 39 9 19 29 30 40 50 60 70
b 40 9 19 20 30 40 50 60 70
b 41 9 20 30 40 50 60 70 71
b 42 9 20 30 40 50 60 61 71
b 43 9 20 30 40 50 51 61 71
b 44 9 20 30 40 41 51 61 71
b 45 9 20 30 41 51 61 71 72
b 46 9 20 30 41 51 61 62 72
b 47 9 20 30 41 51 52 62 72
b 48 9 20 30 41 42 52 62 72
b 49 9 20 30 32 42 52 62 72
b 50 9 20 32 42 44 52 62 72
b 51 32 42 44 52 54 62 72
b 52 42 44 52 53 54 62 72
b 53 44 52 53 54 62 64 72 74
b 54 62 64 72 73 74
b 55 52 62 63 64 74
b 56 14 24 25 26 36
b 57 7 8 9 19
b 58 7 17 18 19 29
b 59 5 6 7 17
b 60 20 30 31 32 42
b 61 9 20 32 33 44
b 62 9 20 21 32 33
b 63 32 42 43 44 54
b 64 44 54 64 74 75
b 65 44 54 55 64 75
b 66 54 55 64 65 75
b 67 66 76 77
b 68 56 67 68
b 69 10 11 22
1 2
2 4
3 69
3 5
4 13
5 62
6 68
6 8
7 67
7 9
8 24
9 66
10 11
11 14
11 12
12 13
14 59
14 15
15 16
16 56
16 17
17 18
18 19
19 20
20 21
21 22
22 23
23 24
24 25
25 26
26 27
27 28
28 29
29 30
30 31
31 32
32 33
33 58
33 34
34 57
34 35
35 36
36 37
37 38
38 39
39 40
40 41
41 42
42 43
43 44
44 45
45 46
46 47
47 48
48 49
49 60
49 50
50 61
50 51
51 63
51 52
52 53
53 55
53 64
53 54
61 62
64 65
65 66
